[VALIDATOR STDOUT]
Checking plan: /home/fjl2401/Safety-gen/benchmark_problems/grid/optic_results/grid_x11_y11_sh3_k6_l6_s11002.plan
Plan executed successfully - checking goal
Goal not satisfied
Plan invalid


Failed plans:
 /home/fjl2401/Safety-gen/benchmark_problems/grid/optic_results/grid_x11_y11_sh3_k6_l6_s11002.plan
